p cnf 10	46
1	3	5	0
-1	-3	-5	0
1	3	6	0
-1	-3	-6	0
1	3	8	0
-1	-3	-8	0
1	5	8	0
-1	-5	-8	0
1	6	7	0
-1	-6	-7	0
1	6	8	0
-1	-6	-8	0
1	7	8	0
-1	-7	-8	0
2	4	6	0
-2	-4	-6	0
2	4	8	0
-2	-4	-8	0
2	6	8	0
-2	-6	-8	0
3	4	5	0
-3	-4	-5	0
3	4	6	0
-3	-4	-6	0
3	4	8	0
-3	-4	-8	0
3	4	9	0
-3	-4	-9	0
3	5	8	0
-3	-5	-8	0
3	6	8	0
-3	-6	-8	0
3	6	9	0
-3	-6	-9	0
4	5	8	0
-4	-5	-8	0
4	6	7	0
-4	-6	-7	0
4	6	8	0
-4	-6	-8	0
4	6	9	0
-4	-6	-9	0
4	7	8	0
-4	-7	-8	0
6	7	8	0
-6	-7	-8	0